%chk=C:\My Drive\apps\3DMolVizr\test\Conformer3D_COMPOUND_CID_241.chk
# hf/3-21g geom=connectivity

241

0 1
 C                 -1.21310000   -0.68840000    0.00000000
 C                 -1.20280000    0.70640000    0.00010000
 C                 -0.01030000   -1.39480000    0.00000000
 C                  0.01040000    1.39480000   -0.00010000
 C                  1.20280000   -0.70630000    0.00000000
 C                  1.21310000    0.68840000    0.00000000
 H                 -2.15770000   -1.22440000    0.00000000
 H                 -2.13930000    1.25640000    0.00010000
 H                 -0.01840000   -2.48090000   -0.00010000
 H                  0.01840000    2.48080000    0.00000000
 H                  2.13940000   -1.25630000    0.00010000
 H                  2.15770000    1.22450000    0.00000000

 1 2 2.0 3 1.0 7 1.0
 2 4 1.0 8 1.0
 3 5 2.0 9 1.0
 4 6 2.0 10 1.0
 5 6 1.0 11 1.0
 6 12 1.0
 7
 8
 9
 10
 11
 12

